N = 9;
H = 5;
T = 2;

avail = array3d(1..N, 1..H, 1..T, [7, 8, 9, 3, 5, 8, 5, 7, 6, 5, 7, 1, 9, 8, 5, 8, 0, 0, 6, 0, 6, 2, 4, 3, 8, 2, 4, 9, 8, 5, 3, 6, 2, 8, 2, 8, 5, 8, 1, 1, 2, 10, 2, 10, 6, 8, 10, 3, 5, 5, 9, 7, 8, 0, 8, 2, 9, 6, 4, 5, 6, 0, 2, 2, 1, 10, 1, 6, 9, 8, 4, 10, 9, 10, 10, 9, 8, 6, 2, 9, 9, 7, 6, 3, 5, 10, 8, 6, 9, 3]);

r = array2d(1..H, 1..T, [1, 2, 0, 4, 2, 2, 4, 3, 3, 2]);
